n = 21;
k = 2;
roles = [
{m, d},
{m, f},
{g, m},
{m, d},
{g, m},
{g, m},
{g, d},
{g, m},
{g, d},
{f, d},
{d, g},
{g, f},
{f, d},
{g, f},
{f, d},
{d, f},
{f, g},
{m, d},
{f, m},
{d, m},
{m, g}
];
num_pairs = 1;
player1 = [8];
player2 = [12];
